RT is False
Default write of storage_offers_DA.csv just to have a file (but constraint should be inactive)
Reading model...
...model read.
creating competitive generators file...
...competitive generators recorded.
Loading data...
.. day-ahead data with real-time VRE data read.
Compiling instance...
...instance created.
Creating Offer Mitigation (model will solve as dispatch if TRUE)...
NOTE: storage offers will not be mitigated
...storage offer mitigation file created
Converting model to MPEC...
...converted
NOTE: initial MIP solve with only storage competitive to get feasible solution
Solving...

Welcome to IBM(R) ILOG(R) CPLEX(R) Interactive Optimizer 12.9.0.0
  with Simplex, Mixed Integer & Barrier Optimizers
5725-A06 5725-A29 5724-Y48 5724-Y49 5724-Y54 5724-Y55 5655-Y21
Copyright IBM Corp. 1988, 2019.  All Rights Reserved.

Type 'help' for a list of available commands.
Type 'help' followed by a command name for more
information on commands.

CPLEX> Logfile 'cplex.log' closed.
Logfile 'C:\Users\llavin\Desktop\test826\logs\tmp6td6h3xq.cplex.log' open.
CPLEX> New value for parallel optimization mode: -1
CPLEX> New value for emphasis for MIP optimization: 1
CPLEX> New value for mixed integer optimality gap tolerance: 0.01
CPLEX> New value for integrality tolerance: 1e-12
CPLEX> New value for deterministic time limit in ticks: 75000
CPLEX> Problem 'C:\Users\llavin\Desktop\test826\logs\tmp64b5w582.pyomo.lp' read.
Read time = 0.23 sec. (13.92 ticks)
CPLEX> Problem name         : C:\Users\llavin\Desktop\test826\logs\tmp64b5w582.pyomo.lp
Objective sense      : Maximize
Variables            :   53809  [Nneg: 1,  Box: 22004,  Free: 4464,
                                 Binary: 27340]
Objective nonzeros   :    9029
Linear constraints   :  123253  [Less: 41346,  Greater: 59096,  Equal: 22811]
  Nonzeros           :  293217
  RHS nonzeros       :   67491

Variables            : Min LB: -5000.000        Max UB: 1000000.       
Objective nonzeros   : Min   : 0.7833333        Max   : 2500.000       
Linear constraints   :
  Nonzeros           : Min   : 0.7833333        Max   : 1000000.       
  RHS nonzeros       : Min   : 0.7833333        Max   : 1000000.       
CPLEX> CPXPARAM_Parallel                                -1
CPXPARAM_Emphasis_MIP                            1
CPXPARAM_DetTimeLimit                            75000
CPXPARAM_MIP_Tolerances_MIPGap                   0.01
CPXPARAM_MIP_Tolerances_Integrality              9.9999999999999998e-13
Tried aggregator 4 times.
MIP Presolve eliminated 88741 rows and 19044 columns.
MIP Presolve added 3374 rows and 0 columns.
MIP Presolve modified 24771 coefficients.
Aggregator did 12963 substitutions.
Reduced MIP has 24923 rows, 21246 columns, and 71711 nonzeros.
Reduced MIP has 8394 binaries, 0 generals, 0 SOSs, and 0 indicators.
Presolve time = 0.33 sec. (194.97 ticks)
Probing fixed 387 vars, tightened 4517 bounds.
Probing time = 0.09 sec. (19.61 ticks)
Tried aggregator 2 times.
MIP Presolve eliminated 873 rows and 774 columns.
MIP Presolve modified 3036 coefficients.
Aggregator did 40 substitutions.
Reduced MIP has 24010 rows, 20432 columns, and 69071 nonzeros.
Reduced MIP has 8007 binaries, 0 generals, 0 SOSs, and 0 indicators.
Presolve time = 0.11 sec. (87.62 ticks)
Probing fixed 0 vars, tightened 240 bounds.
Probing time = 0.13 sec. (22.16 ticks)
Clique table members: 43908.
MIP emphasis: integer feasibility.
MIP search method: dynamic search.
Parallel mode: opportunistic, using up to 32 threads.
Root relaxation solution time = 0.48 sec. (723.94 ticks)

        Nodes                                         Cuts/
   Node  Left     Objective  IInf  Best Integer    Best Bound    ItCnt     Gap

      0     0     3870.2409   250                   3870.2409     6123         
*     0+    0                         3835.2227     3870.2409             0.91%

Root node processing (before b&c):
  Real time             =    1.77 sec. (1434.87 ticks)
Parallel b&c, 32 threads:
  Real time             =    0.00 sec. (0.00 ticks)
  Sync time (average)   =    0.00 sec.
  Wait time (average)   =    0.00 sec.
                          ------------
Total (root+branch&cut) =    1.77 sec. (1434.87 ticks)

Solution pool: 1 solution saved.

MIP - Integer optimal, tolerance (0.01/1e-06):  Objective =  3.8352227160e+03
Current MIP best bound =  3.8702408585e+03 (gap = 35.0181, 0.91%)
Solution time =    1.80 sec.  Iterations = 6123  Nodes = 0 (1)
Deterministic time = 1435.02 ticks  (798.56 ticks/sec)

CPLEX> Incumbent solution written to file 'C:\Users\llavin\Desktop\test826\logs\tmpgonk6ynh.cplex.sol'.
CPLEX> NOTE: no warmstart specified for MIP iteration, default behavior is true
NOTE: resolving with all competitive generators using storage-only solution to warmstart
Solving...

Welcome to IBM(R) ILOG(R) CPLEX(R) Interactive Optimizer 12.9.0.0
  with Simplex, Mixed Integer & Barrier Optimizers
5725-A06 5725-A29 5724-Y48 5724-Y49 5724-Y54 5724-Y55 5655-Y21
Copyright IBM Corp. 1988, 2019.  All Rights Reserved.

Type 'help' for a list of available commands.
Type 'help' followed by a command name for more
information on commands.

CPLEX> Logfile 'cplex.log' closed.
Logfile 'C:\Users\llavin\Desktop\test826\logs\tmpkzz9_e8a.cplex.log' open.
CPLEX> New value for parallel optimization mode: -1
CPLEX> New value for emphasis for MIP optimization: 1
CPLEX> New value for mixed integer optimality gap tolerance: 0.01
CPLEX> New value for integrality tolerance: 1e-12
CPLEX> New value for deterministic time limit in ticks: 75000
CPLEX> Problem 'C:\Users\llavin\Desktop\test826\logs\tmpzkifl7_w.pyomo.lp' read.
Read time = 0.23 sec. (13.94 ticks)
CPLEX> MIP start file 'C:\Users\llavin\Desktop\test826\logs\tmpyo7gvrfs.cplex.mst' read.
CPLEX> Problem name         : C:\Users\llavin\Desktop\test826\logs\tmpzkifl7_w.pyomo.lp
Objective sense      : Maximize
Variables            :   54529  [Nneg: 1,  Box: 22724,  Free: 4464,
                                 Binary: 27340]
Objective nonzeros   :    9725
Linear constraints   :  123253  [Less: 41346,  Greater: 59096,  Equal: 22811]
  Nonzeros           :  293217
  RHS nonzeros       :   67491

Variables            : Min LB: -5000.000        Max UB: 1000000.       
Objective nonzeros   : Min   : 0.7833333        Max   : 2500.000       
Linear constraints   :
  Nonzeros           : Min   : 0.7833333        Max   : 1000000.       
  RHS nonzeros       : Min   : 0.7833333        Max   : 1000000.       
CPLEX> CPXPARAM_Parallel                                -1
CPXPARAM_Emphasis_MIP                            1
CPXPARAM_DetTimeLimit                            75000
CPXPARAM_MIP_Tolerances_MIPGap                   0.01
CPXPARAM_MIP_Tolerances_Integrality              9.9999999999999998e-13
Warning:  No solution found from 1 MIP starts.
Retaining values of one MIP start for possible repair.
Tried aggregator 4 times.
MIP Presolve eliminated 88741 rows and 19764 columns.
MIP Presolve added 3374 rows and 0 columns.
MIP Presolve modified 24771 coefficients.
Aggregator did 12963 substitutions.
Reduced MIP has 24923 rows, 21246 columns, and 71711 nonzeros.
Reduced MIP has 8394 binaries, 0 generals, 0 SOSs, and 0 indicators.
Presolve time = 0.33 sec. (195.38 ticks)
Probing fixed 387 vars, tightened 4517 bounds.
Probing time = 0.08 sec. (19.61 ticks)
Tried aggregator 2 times.
MIP Presolve eliminated 873 rows and 774 columns.
MIP Presolve modified 3036 coefficients.
Aggregator did 40 substitutions.
Reduced MIP has 24010 rows, 20432 columns, and 69071 nonzeros.
Reduced MIP has 8007 binaries, 0 generals, 0 SOSs, and 0 indicators.
Presolve time = 0.11 sec. (87.63 ticks)
Probing fixed 0 vars, tightened 240 bounds.
Probing time = 0.14 sec. (22.16 ticks)
Clique table members: 43908.
MIP emphasis: integer feasibility.
MIP search method: dynamic search.
Parallel mode: opportunistic, using up to 32 threads.
Root relaxation solution time = 0.52 sec. (764.50 ticks)

        Nodes                                         Cuts/
   Node  Left     Objective  IInf  Best Integer    Best Bound    ItCnt     Gap

      0     0    52875.3157   360                  52875.3157     6383         
      0     0    52674.2195   110                   Cuts: 138     6485         
      0     0    52530.1011   113                    Cuts: 62     6555         
      0     0    52318.7203   106                    Cuts: 41     6595         
Repair heuristic found nothing.
      0    69    51024.7034   107                    Cuts: 16     7370         
Elapsed time = 4.97 sec. (2127.45 ticks, tree = 0.09 MB, solutions = 0)
    681   214    49860.4914    76                  52217.8564     8696         
   1234   784    13887.0147    91                  52217.8564    14288         
   1855  1545    infeasible                        52217.8564    29670         
   2540  1700    48857.0892    31                  52217.8564    34297         
   3104  2364    47155.3948    61                  52217.8564    52029         
   3718  2760    46557.1351    38                  52217.8564    67562         
   4338  2836    44295.6552    48                  52217.8564    68981         
   4949  3726   -44841.4046    48                  52217.8564    90268         
   5502  4009    46413.2103    71                  52217.8564    96936         
   5696  4806    infeasible                        52217.8564   120428         
Elapsed time = 20.16 sec. (6657.42 ticks, tree = 42.12 MB, solutions = 0)
*  6672+  183                        44870.4475    51922.6346            15.72%
   9336  1045    49447.1026    41    44882.2312    51914.0068   145463   15.67%
  13124  5171    48195.3232    40    44882.7871    51914.0068   170873   15.67%
  15102  6778    46052.5746    29    44882.7871    51914.0068   180023   15.67%
  17948  8462    44900.4294    48    44883.6747    51914.0068   190117   15.66%
  21950 10117    49548.2069    61    44883.6747    51914.0068   198819   15.66%
  26272 14126    49770.8975    36    44883.6747    51914.0068   217866   15.66%
  30499 21857    47960.9566    39    44883.6747    51914.0068   251950   15.66%
  33811 19091    47880.9853    21    44883.6747    51914.0068   240370   15.66%
* 34962 22504      integral     0    44892.7141    51914.0068   254564   15.64%
  37434 20976    46323.0462    12    44892.7141    51914.0068   248482   15.64%
Elapsed time = 65.70 sec. (15662.36 ticks, tree = 168.66 MB, solutions = 5)
  40768 25010    46753.5503     9    44892.7141    51914.0068   265115   15.64%
  41282 29916    infeasible          44892.7141    51914.0068   299674   15.64%
  43749   942    44990.9312     3    44990.8946    51643.0640   306691   14.79%
  46686  3556    51467.1018    42    45036.6623    51643.0640   319768   14.67%
  49410  5281    46687.8683    14    45036.6623    51643.0640   331695   14.67%
  52281  8685    46603.8135    15    45036.6623    51643.0640   351707   14.67%
  55126 10201    46803.7644    21    45036.6623    51643.0640   359986   14.67%
  58080 12887    46573.5439    18    45036.6623    51643.0640   373163   14.67%
  61178 16210    46587.9394    20    45036.6623    51643.0640   388787   14.67%
  64382 18560    48182.7533    20    45036.6623    51643.0640   397956   14.67%
Elapsed time = 103.44 sec. (26734.43 ticks, tree = 149.79 MB, solutions = 9)
  67436 24049    46560.4926     9    45036.6623    51643.0640   420736   14.67%
  70808 22191    45899.3543    19    45036.6623    51643.0640   413018   14.67%
  74196 24866    51075.1539    37    45036.6623    51643.0640   423582   14.67%
  77597 30723    51139.2358    34    45036.6623    51643.0640   446663   14.67%
  81060 31376    46478.0865    20    45036.6623    51643.0640   449239   14.67%
  84213 35421    48293.6335    28    45036.6623    51643.0640   463566   14.67%
  87110 37591    46167.3835    12    45036.6623    51643.0640   472437   14.67%
  90276 41348    48261.3816    29    45036.6623    51643.0640   489245   14.67%
  93642 42139    46169.9808    17    45036.6623    51643.0640   492926   14.67%
  96936 45086    45156.0807    17    45036.6623    51643.0640   506620   14.67%
Elapsed time = 142.02 sec. (36272.88 ticks, tree = 346.65 MB, solutions = 9)
 100291 50261    45787.2916    19    45036.6623    51643.0640   532869   14.67%
 103441 51294    48134.1893    28    45036.6623    51643.0640   539196   14.67%
 106543 56693    48220.9885    34    45036.6623    51643.0640   567569   14.67%
 109521 60018    45214.9056    25    45036.6623    51643.0640   586118   14.67%
 112406 57328    47358.8869    43    45036.6623    51643.0640   571224   14.67%
 115359 60511    46602.3740    28    45036.6623    51643.0640   589389   14.67%
 118415 63968    49956.7668    39    45036.6623    51643.0640   610988   14.67%
 121412 65019    46128.1062    32    45036.6623    51643.0640   618015   14.67%
 124533 66520    46907.7576    28    45036.6623    51643.0640   628522   14.67%
 127682 71013        cutoff          45036.6623    51643.0640   657531   14.67%
Elapsed time = 178.77 sec. (45811.22 ticks, tree = 541.42 MB, solutions = 9)
 130853 74866    45149.6005    25    45036.6623    51643.0640   683942   14.67%
 133814 75580    46965.7993    29    45036.6623    51643.0640   688172   14.67%
 136818 81381    45284.0489    27    45036.6623    51643.0640   720969   14.67%
 140080 85543    45308.7708     8    45036.6623    51643.0640   744210   14.67%
 143458 87013    46561.0393    16    45036.6623    51643.0640   753386   14.67%
 146819 85811    46743.4802    28    45036.6623    51643.0640   745787   14.67%
 150299 92695    46747.9461    34    45036.6623    51643.0640   788305   14.67%
 153918 88323    46413.2764    39    45036.6623    51643.0640   762483   14.67%
 157591 91076    46055.1834     8    45036.6623    51643.0640   781359   14.67%
 161183 98747    45647.7744     9    45036.6623    51643.0640   824479   14.67%
Elapsed time = 219.30 sec. (55350.59 ticks, tree = 747.16 MB, solutions = 9)
 164525 101667        cutoff          45036.6623    51643.0640   841115   14.67%
 167970 103344    46706.0104    35    45036.6623    51643.0640   851249   14.67%
 171256 105665    46665.1532    26    45036.6623    51643.0640   865638   14.67%
 174526 106725    46188.9375    22    45036.6623    51643.0640   871218   14.67%
 177801 110269    46224.2381     9    45036.6623    51643.0640   893792   14.67%
 181095 111146    49548.3778    30    45036.6623    51643.0640   898301   14.67%
 184499 124989    46017.4397     7    45036.6623    51643.0640   974614   14.67%
 187784 116329    46564.6073    12    45036.6623    51643.0640   923939   14.67%
 191022 126937        cutoff          45036.6623    51643.0640   985363   14.67%
 194267 123325    47853.7794    31    45036.6623    51643.0640   965029   14.67%
Elapsed time = 259.14 sec. (64890.17 ticks, tree = 926.42 MB, solutions = 9)
 197790 128318    48971.9752    30    45036.6623    51643.0640   991808   14.67%
 201468 137539    46525.5402    10    45036.6623    51643.0640  1038544   14.67%
 204989 130189    46430.6150    32    45036.6623    51643.0640  1002701   14.67%
 208503 135871    46648.0735    32    45036.6623    51643.0640  1030097   14.67%
 211798 146551    45755.1074    27    45036.6623    51643.0640  1095524   14.67%
 215200 151355    46558.2713    29    45036.6623    51643.0640  1124090   14.67%
 218558 142730    45889.4069    24    45036.6623    51643.0640  1071166   14.67%
 221669 149442    47873.9623    35    45036.6623    51643.0640  1111345   14.67%
 224361 149289    45655.0951    10    45036.6623    51643.0640  1110732   14.67%
 225798 149603    45889.8574    21    45036.6623    51643.0640  1112730   14.67%
Elapsed time = 282.67 sec. (74429.13 ticks, tree = 1124.89 MB, solutions = 9)

Clique cuts applied:  6
Cover cuts applied:  22
Implied bound cuts applied:  16
Flow cuts applied:  95
Mixed integer rounding cuts applied:  10
Gomory fractional cuts applied:  14

Root node processing (before b&c):
  Real time             =    3.06 sec. (2099.09 ticks)
Parallel b&c, 32 threads:
  Real time             =  280.78 sec. (72912.86 ticks)
  Sync time (average)   =    3.18 sec.
  Wait time (average)   =    0.42 sec.
                          ------------
Total (root+branch&cut) =  283.84 sec. (75011.96 ticks)

Solution pool: 9 solutions saved.

MIP - Deterministic time limit exceeded, integer feasible:  Objective =  4.5036662318e+04
Current MIP best bound =  5.1643063997e+04 (gap = 6606.4, 14.67%)
Solution time =  283.88 sec.  Iterations = 1182643  Nodes = 226272 (160476)
Deterministic time = 75012.11 ticks  (264.24 ticks/sec)

CPLEX> Incumbent solution written to file 'C:\Users\llavin\Desktop\test826\logs\tmpusu7t4gs.cplex.sol'.
CPLEX> Exporting results... 
